c numero: 8
c nombre: n-20-d-0.5
c densidad: 0.5
p edges 20 95
e 1 2
e 1 3
e 1 4
e 1 5
e 1 9
e 1 10
e 1 13
e 1 17
e 1 18
e 2 3
e 2 5
e 2 6
e 2 7
e 2 9
e 2 11
e 2 12
e 2 13
e 2 15
e 2 16
e 2 19
e 3 4
e 3 6
e 3 9
e 3 10
e 3 11
e 3 12
e 3 14
e 3 18
e 4 5
e 4 8
e 4 9
e 4 11
e 4 13
e 4 15
e 4 17
e 4 18
e 5 6
e 5 8
e 5 9
e 5 10
e 5 11
e 5 15
e 5 17
e 6 7
e 6 8
e 6 10
e 6 11
e 6 12
e 6 14
e 6 15
e 6 17
e 7 11
e 7 14
e 7 15
e 7 17
e 7 18
e 8 10
e 8 15
e 8 16
e 8 17
e 8 18
e 9 13
e 9 16
e 9 17
e 9 18
e 9 19
e 9 20
e 10 11
e 10 12
e 10 13
e 10 17
e 10 18
e 10 19
e 11 12
e 11 14
e 11 15
e 11 17
e 11 18
e 11 19
e 11 20
e 12 15
e 12 17
e 12 19
e 12 20
e 13 19
e 13 20
e 14 15
e 14 18
e 14 19
e 15 16
e 15 17
e 15 20
e 17 18
e 17 20
e 18 19
